# datafile
data_file=energies.csv

# figure file for outputting
output_file=my_plot.png

# texts
abscissa_label=reaction coordinate
ordinate_label=energy (kcal/mol)
title=my_reaction_pathway

# line styles
# omitteid
line_colors=cyan

# figure_styles
# omitted
plot_size = 5 5
plot_range = -0.5 1
interval = 0.5

# text styles
#species_text_weight=bold
text_font = DejaVu Serif
species_tilt_angle = -30
species_text_weight = bold
species_text_ordinate = -0.05
abscissa_label_ordinate = -0.4
# data display styles
# omitted
